17	4	3
16	15	16	14	50	28	36	
0	0	0	0	0	1	9	7	9	8	3	3	2	3	4
9	0	10	4	8	9	5	2	8	10	1	3	6	7	10
3	7	3	3	4	9	3	7	5	3	4	1	6
1	10	7	5	10	10	8	7	7	8	10	3	5	9	17
7	4	0	0	9	4	1	2	6	6	6	3	6	8	14
175	6	10	0	3	8	7	4	5	5	1	1	11
100	10	6	2	5	7	3	5	9	1	5	3	12	13	17
75	5	4	10	3	9	9	7	6	3	10	1	17
225	7	9	3	0	10	2	8	6	9	5	2	12	17
25	6	2	10	2	6	2	6	7	8	1	1	17
50	5	10	0	10	3	6	8	6	10	2	1	17
50	2	7	7	0	7	7	5	2	5	5	1	17
6	1	0	0	6	6	4	3	3	9	6	1	17
1	5	9	0	9	2	8	8	9	3	6	2	15	16
3	5	0	6	1	4	9	8	9	5	5	1	17
6	1	6	7	0	10	8	10	7	3	10	1	17
0	0	0	0	0	8	10	6	3	1	1	0
